node 0 w: 6.16, h: 12.95
node 1 w: 4.9, h: 12.95
node 2 w: 8.4, h: 7.56
node 3 w: 11.62, h: 19.39
node 4 w: 12.18, h: 16.52
node 5 w: 8.82, h: 13.16
node 6 w: 21.14, h: 12.95
连接统计: 总计 12 对
连接关系（EMIBNode 内容）:
  (A,E): node1=A, node2=E, wireCount=512, EMIBType=interfaceB, EMIB_length=1.7067, EMIB_max_width=3.0, width=2.0, height=1.7067, bump_width=1.0000
  (A,F): node1=A, node2=F, wireCount=256, EMIBType=interfaceB, EMIB_length=0.8533, EMIB_max_width=3.0, width=2.0, height=0.8533, bump_width=1.0000
  (A,G): node1=A, node2=G, wireCount=256, EMIBType=interfaceB, EMIB_length=0.8533, EMIB_max_width=3.0, width=2.0, height=0.8533, bump_width=1.0000
  (B,C): node1=B, node2=C, wireCount=256, EMIBType=interfaceB, EMIB_length=0.8533, EMIB_max_width=3.0, width=2.0, height=0.8533, bump_width=1.0000
  (C,E): node1=C, node2=E, wireCount=256, EMIBType=interfaceB, EMIB_length=0.8533, EMIB_max_width=3.0, width=2.0, height=0.8533, bump_width=1.0000
  (C,F): node1=C, node2=F, wireCount=512, EMIBType=interfaceB, EMIB_length=1.7067, EMIB_max_width=3.0, width=2.0, height=1.7067, bump_width=1.0000
  (D,E): node1=D, node2=E, wireCount=512, EMIBType=interfaceB, EMIB_length=1.7067, EMIB_max_width=3.0, width=2.0, height=1.7067, bump_width=1.0000
  (D,F): node1=D, node2=F, wireCount=256, EMIBType=interfaceB, EMIB_length=0.8533, EMIB_max_width=3.0, width=2.0, height=0.8533, bump_width=1.0000
  (D,G): node1=D, node2=G, wireCount=128, EMIBType=interfaceC, EMIB_length=3.2, EMIB_max_width=99.0, width=1.0, height=3.2, bump_width=0.5000
  (E,F): node1=E, node2=F, wireCount=256, EMIBType=interfaceB, EMIB_length=0.8533, EMIB_max_width=3.0, width=2.0, height=0.8533, bump_width=1.0000
  (E,G): node1=E, node2=G, wireCount=512, EMIBType=interfaceB, EMIB_length=1.7067, EMIB_max_width=3.0, width=2.0, height=1.7067, bump_width=1.0000
  (F,G): node1=F, node2=G, wireCount=128, EMIBType=interfaceC, EMIB_length=3.2, EMIB_max_width=99.0, width=1.0, height=3.2, bump_width=0.5000
连续布局: W=138, H=138
问题规模: 7 个模块, 12 对连接
连接关系 [node1, node2, wireCount, EMIBType, EMIB_length, EMIB_max_width]:
  (0,4): [A, E, 512, interfaceB2026-03-05 16:15:41 - INFO - Set parameter WLSAccessID
2026-03-05 16:15:41 - INFO - Set parameter WLSSecret
2026-03-05 16:15:41 - INFO - Set parameter LicenseID to value 2756663
2026-03-05 16:15:41 - INFO - Academic license 2756663 - for non-commercial use only - registered to hu___@sjtu.edu.cn
2026-03-05 16:15:41 - INFO - Set parameter TimeLimit to value 300
2026-03-05 16:15:41 - INFO - Set parameter MIPGap to value 0
2026-03-05 16:15:41 - INFO - Set parameter MIPFocus to value 3
2026-03-05 16:15:41 - INFO - Set parameter Heuristics to value 0.5
2026-03-05 16:15:41 - INFO - Set parameter LogToConsole to value 1
2026-03-05 16:15:41 - INFO - Gurobi Optimizer version 13.0.0 build v13.0.0rc1 (linux64 - "Ubuntu 20.04.6 LTS")
2026-03-05 16:15:41 - INFO - 
2026-03-05 16:15:41 - INFO - CPU model: AMD Ryzen 9 9950X3D 16-Core Processor, instruction set [SSE2|AVX|AVX2|AVX512]
2026-03-05 16:15:41 - INFO - Thread count: 6 physical cores, 12 logical processors, using up to 12 threads
2026-03-05 16:15:41 - INFO - 
2026-03-05 16:15:41 - INFO - Non-default parameters:
2026-03-05 16:15:41 - INFO - TimeLimit  300
2026-03-05 16:15:41 - INFO - MIPGap  0
2026-03-05 16:15:41 - INFO - Heuristics  0.5
2026-03-05 16:15:41 - INFO - MIPFocus  3
2026-03-05 16:15:41 - INFO - 
2026-03-05 16:15:41 - INFO - Academic license 2756663 - for non-commercial use only - registered to hu___@sjtu.edu.cn
2026-03-05 16:15:41 - INFO - Optimize a model with 1091 rows, 502 columns and 3730 nonzeros (Min)
2026-03-05 16:15:41 - INFO - Model fingerprint: 0xe58cc6c1
2026-03-05 16:15:41 - INFO - Model has 3 linear objective coefficients
2026-03-05 16:15:41 - INFO - Variable types: 201 continuous, 301 integer (301 binary)
2026-03-05 16:15:41 - INFO - Coefficient statistics:
2026-03-05 16:15:41 - INFO -   Matrix range     [3e-01, 5e+02]
2026-03-05 16:15:41 - INFO -   Objective range  [8e-05, 9e-02]
2026-03-05 16:15:41 - INFO -   Bounds range     [9e-01, 1e+07]
2026-03-05 16:15:41 - INFO -   RHS range        [9e-01, 3e+02]
2026-03-05 16:15:41 - INFO - Presolve removed 100 rows and 86 columns
2026-03-05 16:15:41 - INFO - Presolve time: 0.01s
2026-03-05 16:15:41 - INFO - Presolved: 991 rows, 416 columns, 3528 nonzeros
2026-03-05 16:15:41 - INFO - Variable types: 135 continuous, 281 integer (281 binary)
2026-03-05 16:15:41 - INFO - Root relaxation presolve removed 50 rows and 8 columns
2026-03-05 16:15:41 - INFO - Root relaxation presolved: 941 rows, 426 columns, 3430 nonzeros
2026-03-05 16:15:41 - INFO - 
2026-03-05 16:15:41 - INFO - 
2026-03-05 16:15:41 - INFO - Root relaxation: objective 2.557886e+00, 210 iterations, 0.00 seconds (0.00 work units)
2026-03-05 16:15:41 - INFO - 
2026-03-05 16:15:41 - INFO -     Nodes    |    Current Node    |     Objective Bounds      |     Work
2026-03-05 16:15:41 - INFO -  Expl Unexpl |  Obj  Depth IntInf | Incumbent    BestBd   Gap | It/Node Time
2026-03-05 16:15:41 - INFO - 
2026-03-05 16:15:41 - INFO -      0     0    2.55789    0  112          -    2.55789      -     -    0s
2026-03-05 16:15:41 - INFO -      0     0    4.52924    0  142          -    4.52924      -     -    0s
2026-03-05 16:15:41 - INFO -      0     0    4.52924    0  122          -    4.52924      -     -    0s
2026-03-05 16:15:41 - INFO -      0     0    4.65325    0  123          -    4.65325      -     -    0s
2026-03-05 16:15:41 - INFO -      0     0    5.14639    0  148          -    5.14639      -     -    0s
2026-03-05 16:15:41 - INFO -      0     0    5.14639    0  130          -    5.14639      -     -    0s
2026-03-05 16:15:41 - INFO -      0     0    5.66922    0  141          -    5.66922      -     -    0s
2026-03-05 16:15:41 - INFO -      0     0    6.23144    0  158          -    6.23144      -     -    0s
2026-03-05 16:15:41 - INFO -      0     0    6.23144    0  158          -    6.23144      -     -    0s
2026-03-05 16:15:41 - INFO -      0     0    6.23144    0  148          -    6.23144      -     -    0s
2026-03-05 16:15:41 - INFO -      0     0    6.41072    0  148          -    6.41072      -     -    0s
2026-03-05 16:15:42 - INFO -      0     0    6.41072    0  141          -    6.41072      -     -    0s
2026-03-05 16:15:42 - INFO -      0     2    6.41072    0  139          -    6.41072      -     -    1s
2026-03-05 16:15:46 - INFO -   2453  1654    7.61935   23   62          -    7.58697      -  48.5    5s
2026-03-05 16:15:50 - INFO - 
2026-03-05 16:15:50 - INFO - Cutting planes:
2026-03-05 16:15:50 - INFO -   Learned: 9
2026-03-05 16:15:50 - INFO -   Gomory: 89
2026-03-05 16:15:50 - INFO -   Lift-and-project: 52
2026-03-05 16:15:50 - INFO -   MIR: 24
2026-03-05 16:15:50 - INFO -   Mixing: 2
2026-03-05 16:15:50 - INFO -   Flow cover: 206
2026-03-05 16:15:50 - INFO -   Inf proof: 9
2026-03-05 16:15:50 - INFO -   Relax-and-lift: 2
2026-03-05 16:15:50 - INFO -   PSD: 2
2026-03-05 16:15:50 - INFO - 
2026-03-05 16:15:50 - INFO - Explored 12445 nodes (425475 simplex iterations) in 8.83 seconds (16.27 work units)
2026-03-05 16:15:50 - INFO - Thread count was 12 (of 12 available processors)
2026-03-05 16:15:50 - INFO - 
2026-03-05 16:15:50 - INFO - Solution count 0
2026-03-05 16:15:50 - INFO - 
2026-03-05 16:15:50 - INFO - Model is infeasible
2026-03-05 16:15:50 - INFO - Best objective -, best bound -, gap -
2026-03-05 16:15:50 - INFO - 
EMIB求解返回 0 个解（最多1个）。
52924      -     -    0s
     0     0    4.52924    0  122          -    4.52924      -     -    0s
     0     0    4.65325    0  123          -    4.65325      -     -    0s
     0     0    5.14639    0  148          -    5.14639      -     -    0s
     0     0    5.14639    0  130          -    5.14639      -     -    0s
     0     0    5.66922    0  141          -    5.66922      -     -    0s
     0     0    6.23144    0  158          -    6.23144      -     -    0s
     0     0    6.23144    0  158          -    6.23144      -     -    0s
     0     0    6.23144    0  148          -    6.23144      -     -    0s
     0     0    6.41072    0  148          -    6.41072      -     -    0s
     0     0    6.41072    0  141          -    6.41072      -     -    0s
     0     2    6.41072    0  139          -    6.41072      -     -    1s
  2453  1654    7.61935   23   62          -    7.58697      -  48.5    5s

Cutting planes:
  Learned: 9
  Gomory: 89
  Lift-and-project: 52
  MIR: 24
  Mixing: 2
  Flow cover: 206
  Inf proof: 9
  Relax-and-lift: 2
  PSD: 2

Explored 12445 nodes (425475 simplex iterations) in 8.83 seconds (16.27 work units)
Thread count was 12 (of 12 available processors)

Solution count 0

Model is infeasible
Best objective -, best bound -, gap -
[EMIB] 单次求解无可行解: MIPGap=0.0, 状态码=3, 用时=8.83s, SolCount=0
[EMIB] 搜索解失败，无合法解
  ✓ EMIB求解：返回 0 个解
